C  S  O 
 1.0000000000000000
     9.8654642100000007    0.0000000000000000    0.0000000000000000
    -4.9327332400000001    8.5437419699999992    0.0000000000000000
     0.0000000000000000    0.0000000000000000   26.7272739399999999
 C   S   O  
  96   1   2
Selective dynamics
Cartesian
  0.0000000000000000  0.0000000000000000  0.0000000000000000   F   F   F
 -1.2331833100000000  2.1359354924999998  0.0000000000000000   F   F   F
 -2.4663666200000001  4.2718709849999996  0.0000000000000000   F   F   F
 -3.6995499299999999  6.4078064774999994  0.0000000000000000   F   F   F
  2.4663660525000002  0.0000000000000000  0.0000000000000000   F   F   F
  1.2331827425000002  2.1359354924999998  0.0000000000000000   F   F   F
 -0.0000005674999999  4.2718709849999996  0.0000000000000000   F   F   F
 -1.2331838774999999  6.4078064774999994  0.0000000000000000   F   F   F
  4.9327321050000004  0.0000000000000000  0.0000000000000000   F   F   F
  3.6995487950000001  2.1359354924999998  0.0000000000000000   F   F   F
  2.4663654850000003  4.2718709849999996  0.0000000000000000   F   F   F
  1.2331821750000003  6.4078064774999994  0.0000000000000000   F   F   F
  7.3990981575000010  0.0000000000000000  0.0000000000000000   F   F   F
  6.1659148475000007  2.1359354924999998  0.0000000000000000   F   F   F
  4.9327315375000005  4.2718709849999996  0.0000000000000000   F   F   F
  3.6995482275000011  6.4078064774999994  0.0000000000000000   F   F   F
 -0.0000001398393492  1.4239570234791397  0.0000000000000000   F   F   F
 -1.2331836471486564  3.5598926868539791  0.0000000000000000   F   F   F
 -2.4663668584940144  5.6958281793539784  0.0000000000000000   F   F   F
 -3.6995501684940142  7.8317636718539783  0.0000000000000000   F   F   F
  2.4663659126606503  1.4239570234791397  0.0000000000000000   F   F   F
  1.2331825040059856  3.5598926868539791  0.0000000000000000   F   F   F
 -0.0000008059940144  5.6958281793539784  0.0000000000000000   F   F   F
 -1.2331841159940145  7.8317636718539783  0.0000000000000000   F   F   F
  4.9327316691967242  1.4239570234791397  0.0000000000000000   F   F   F
  3.6995482605420595  3.5598926868539791  0.0000000000000000   F   F   F
  2.4663649505420593  5.6958281793539784  0.0000000000000000   F   F   F
  1.2331816405420595  7.8317636718539783  0.0000000000000000   F   F   F
  7.3990977216967240  1.4239570234791397  0.0000000000000000   F   F   F
  6.1659143130420588  3.5598926868539791  0.0000000000000000   F   F   F
  4.9327310030420595  5.6958281793539784  0.0000000000000000   F   F   F
  3.6995476930420592  7.8317636718539783  0.0000000000000000   F   F   F
  9.7501289798557966  0.0890552672371965  3.4030170125908148   T   T   T
  8.5062140201529814  2.2079422352605795  3.4443563544665516   T   T   T
  7.2662705453743559  4.3695517578178489  3.4002598270111637   T   T   T
  6.0339957479814297  6.4903721746490426  3.4404210306516259   T   T   T
  2.3209481584406126  0.1082826167910027  3.4227933243972388   T   T   T
  1.0983054576523004  2.2294756262095081  3.3046812244925481   T   T   T
 -0.1354137942356286  4.3695115167931702  3.4084822055660653   T   T   T
 -1.3717423604998256  6.4925906426889730  3.4256755936189283   T   T   T
  4.8005645685626641  0.0833342921766648  3.4615879625211488   T   T   T
  3.5530299181130620  2.2217989886120439  3.4654882736072126   T   T   T
  2.3399598713135759  4.3674069368337003  3.4556136149773407   T   T   T
  1.1113333720245224  6.4873865640176263  3.4225976807519980   T   T   T
  7.2779108329671054  0.0866009919188943  3.5260119181716032   T   T   T
  6.0378364975080503  2.2128137060570343  3.4817951179834861   T   T   T
  4.8110734823538923  4.3583849161882195  3.4587423096647569   T   T   T
  3.5810779510722481  6.4898377635888194  3.5520472229892968   T   T   T
  1.0982945968843509  0.8101458079439009  3.3150746595095959   T   T   T
 -0.1215116838654304  2.9281508054837206  3.3901579865528015   T   T   T
 -1.3723472209835839  5.0741319443546269  3.4317568502584965   T   T   T
 -2.5994017101924611  7.2115330303521601  3.4302724174638684   T   T   T
  3.5737841824409671  0.8019970431651741  3.4637713135293073   T   T   T
  2.3311895165048138  2.9307342621806098  3.3946628685753883   T   T   T
  1.1008597426465832  5.0670736173635307  3.3951725576894245   T   T   T
 -0.1368846667470042  7.1979308805114020  3.4089649001334221   T   T   T
  6.0351947121911014  0.8127052567258538  3.4706396883864081   T   T   T
  4.8024128772382522  2.9487828316548148  3.4987832405724886   T   T   T
  3.5801502924592752  5.0724349008871261  3.5057756299806719   T   T   T
  2.3547051093110998  7.1931892745928918  3.5271537073143202   T   T   T
  8.5195278499019533  0.7890917209194890  3.4840575817225066   T   T   T
  7.2770231030916808  2.9523079795916365  3.4602443824601852   T   T   T
  6.0470745320987698  5.0786489352967461  3.3838172080832760   T   T   T
  4.8005705280891027  7.2066208913439294  3.4743996812842872   T   T   T
 -0.2223325430020318  0.3871700052983337  6.8782270648209618   T   T   T
 -1.4177873583803815  2.5242847050650328  6.9192844339566326   T   T   T
 -3.8867381878301637  6.7993721526044784  6.8167270729395435   T   T   T
 -2.6440681995600812  4.6742881522179953  6.8198568367179186   T   T   T
 -0.2034503163898135  4.6616729754496120  6.9877209552436996   T   T   T
 -1.4322621915471294  6.8102252680289688  6.9233881395973809   T   T   T
  1.0286267301437553  2.5230068175785800  6.8787567993904526   T   T   T
  2.2582578805296474  0.3913669476662567  6.8403438267384074   T   T   T
  7.1798405796882960  0.3973268057522696  6.8520664090884917   T   T   T
  5.9569244045801968  2.5460094758340901  6.8105242072035495   T   T   T
  3.4917676392160462  6.7920425618058351  6.8937248746150726   T   T   T
  4.7240578797584396  4.6433855229499246  6.8991970166815477   T   T   T
  2.2622077922124562  4.6480181961583185  6.9284358525536893   T   T   T
  1.0340702698716424  6.8040195210490593  6.8791847030462323   T   T   T
  3.5130276911377281  2.5128172945928990  6.8592370694138527   T   T   T
  4.7494102253254340  0.3608755286992025  6.7683266525615977   T   T   T
 -0.2076079329580281  1.7964528956317392  6.8525007272900167   T   T   T
 -1.4337197768823100  3.9325040703980130  6.8714249736032320   T   T   T
 -3.9207748708964347  8.2317594571602566  6.8694030553296717   T   T   T
 -2.6461510875689171  6.1034601903582031  6.8634816277882642   T   T   T
 -0.2094356865484045  6.0943995519990182  6.8996944112495697   T   T   T
 -1.4144707064166480  8.2328505784472448  6.8247783969412303   T   T   T
  1.0259548737753035  3.9532799731838817  6.9547445773837877   T   T   T
  2.2773734089533630  1.8189483119264902  6.8322435918254110   T   T   T
  7.1907416295134352  1.8235842317568320  6.8894525198757632   T   T   T
  5.9662409155982550  3.9517392801944315  6.8206845803918394   T   T   T
  3.4760317868720825  8.2244736103204996  6.8399816721765196   T   T   T
  4.7434057886214998  6.0752584942391090  6.8718539463499706   T   T   T
  2.2643232036222689  6.0636650635729179  6.9196997757936609   T   T   T
  1.0172175978644733  8.2348495577559664  6.7921802100075697   T   T   T
  3.4839612797428794  3.9341007248973665  6.9056102260634500   T   T   T
  4.7580826159589114  1.7984189815338756  6.8342481373709107   T   T   T
  4.6108146468460740  6.6697960010013828 13.7850229843630672   T   T   T
  5.3428958236245494  5.3983491239361427 14.1377019714747441   T   T   T
  3.2692837089627669  6.9427966432650638 14.2439213845050592   T   T   T
Cartesian
  0.0000000000000000  0.0000000000000000  0.0000000000000000
  0.0000000000000000  0.0000000000000000  0.0000000000000000
  0.0000000000000000  0.0000000000000000  0.0000000000000000
  0.0000000000000000  0.0000000000000000  0.0000000000000000
  0.0000000000000000  0.0000000000000000  0.0000000000000000
  0.0000000000000000  0.0000000000000000  0.0000000000000000
  0.0000000000000000  0.0000000000000000  0.0000000000000000
  0.0000000000000000  0.0000000000000000  0.0000000000000000
  0.0000000000000000  0.0000000000000000  0.0000000000000000
  0.0000000000000000  0.0000000000000000  0.0000000000000000
  0.0000000000000000  0.0000000000000000  0.0000000000000000
  0.0000000000000000  0.0000000000000000  0.0000000000000000
  0.0000000000000000  0.0000000000000000  0.0000000000000000
  0.0000000000000000  0.0000000000000000  0.0000000000000000
  0.0000000000000000  0.0000000000000000  0.0000000000000000
  0.0000000000000000  0.0000000000000000  0.0000000000000000
  0.0000000000000000  0.0000000000000000  0.0000000000000000
  0.0000000000000000  0.0000000000000000  0.0000000000000000
  0.0000000000000000  0.0000000000000000  0.0000000000000000
  0.0000000000000000  0.0000000000000000  0.0000000000000000
  0.0000000000000000  0.0000000000000000  0.0000000000000000
  0.0000000000000000  0.0000000000000000  0.0000000000000000
  0.0000000000000000  0.0000000000000000  0.0000000000000000
  0.0000000000000000  0.0000000000000000  0.0000000000000000
  0.0000000000000000  0.0000000000000000  0.0000000000000000
  0.0000000000000000  0.0000000000000000  0.0000000000000000
  0.0000000000000000  0.0000000000000000  0.0000000000000000
  0.0000000000000000  0.0000000000000000  0.0000000000000000
  0.0000000000000000  0.0000000000000000  0.0000000000000000
  0.0000000000000000  0.0000000000000000  0.0000000000000000
  0.0000000000000000  0.0000000000000000  0.0000000000000000
  0.0000000000000000  0.0000000000000000  0.0000000000000000
 -0.0018980413795399  0.0004254356313962 -0.0022966746496641
  0.0007256540479684  0.0012947186581338  0.0041244192780512
 -0.0007311545290305  0.0023543562559633  0.0043985074723059
  0.0010630534136690 -0.0023916496896624  0.0041459347335727
 -0.0019145164999823 -0.0011161117322510  0.0019251655418982
 -0.0006334118695972 -0.0019572004104878 -0.0029643219526854
  0.0009962882467072  0.0024103177658663  0.0001840172810769
 -0.0018355680615619 -0.0015758932063665 -0.0002545772842784
 -0.0010953130705617 -0.0007027227770325  0.0000825872764745
  0.0009407214335183 -0.0007058839615614 -0.0053859466080191
 -0.0014240550429622 -0.0003921150377133 -0.0037412838061211
  0.0004755646200123  0.0006189941057265 -0.0013942282450803
  0.0032887019282898 -0.0008021719335633  0.0044210920187852
 -0.0024574876190605  0.0036459564482779  0.0043238047416436
 -0.0007744637268565  0.0009237066630867  0.0010114936822592
 -0.0029145788385698  0.0006274096915670 -0.0037058701681504
 -0.0010427791926741 -0.0028177261017060 -0.0007593218526354
  0.0006562997531022  0.0019079884567404 -0.0041029038225297
  0.0003271883387057 -0.0016423635188932  0.0006065754820680
 -0.0020346534307078  0.0006928120363474 -0.0027720192166868
 -0.0028958345555654  0.0013725948661903  0.0006302291195051
  0.0008798020567297  0.0003125300812627 -0.0032772983305229
  0.0010432724618778  0.0028478855108603 -0.0020200473643854
 -0.0012407790345919 -0.0030042359889110  0.0034968628859398
  0.0020337650671427  0.0028585651883226  0.0002321263741691
  0.0007576923641630 -0.0003701576208501 -0.0023028219226704
  0.0018212139806489  0.0002998853431471 -0.0021114546412599
  0.0021563436709146  0.0012705398683587  0.0014912482494822
  0.0025620607101840  0.0025981519330770  0.0036410565288459
 -0.0017733175671027  0.0028255009068986  0.0023193928325134
 -0.0020731285331826 -0.0008724869299767 -0.0003716427441356
  0.0033617307053148  0.0016201070710610  0.0009370582243365
 -0.0005366566468682  0.0004328686869100  0.0038468565381838
  0.0044109973440816 -0.0023623446547049 -0.0028586155842525
 -0.0026070970319669  0.0009974818749975  0.0050037465906768
  0.0020169204592253 -0.0022015941495395  0.0000895363676993
 -0.0054272141328089  0.0022427749858351  0.0042016610997383
  0.0004295427335603 -0.0031755380154095  0.0014953909769430
 -0.0000604262919197  0.0024361625853257 -0.0043302192873888
 -0.0021632495368465 -0.0009620253458220 -0.0036021683452636
 -0.0008761275003076  0.0021640016848714 -0.0015430991609260
 -0.0020970524075168  0.0000580974453960  0.0006291600285480
  0.0007197836943374  0.0043239878110171 -0.0011312318695108
  0.0043371290543178  0.0023535873191855  0.0043858120171844
 -0.0005642305881227  0.0001979157827355 -0.0039565719977077
  0.0009551496417446 -0.0004561076650686 -0.0022496346475304
 -0.0003500268595572  0.0014256087851141 -0.0010652155028788
 -0.0005396406910164 -0.0015150617635401 -0.0015310718876526
  0.0019260345577990  0.0001499426715734 -0.0040875356400145
  0.0008800241148957 -0.0003289767845548  0.0013763209715406
 -0.0007887431957666 -0.0050270523377292 -0.0018824019035945
 -0.0015218712168408  0.0003323088439230 -0.0024192192006787
  0.0025815459396443 -0.0044600041831795 -0.0023800637443572
 -0.0083252435575730  0.0021355510241106 -0.0041143965503234
 -0.0024531225146486  0.0063822179702998 -0.0058953684493155
 -0.0012499047490093 -0.0017996538085608  0.0038665010845305
  0.0005567079923600  0.0011517818549757  0.0049255693144027
 -0.0000777892276877  0.0003191087625794  0.0031703892347624
  0.0033325782904448  0.0013801987965435 -0.0043653656526207
  0.0053319132858690  0.0012399959908161  0.0041307001874271
 -0.0030619442329121  0.0007983272496768  0.0008076982184667
 -0.0024394582087004  0.0015795242967045  0.0027513055793842
 -0.0002544556137966  0.0047284912745865 -0.0048395074923152
 -0.0028646345949215 -0.0018648425597918 -0.0013596164253280
 -0.0005461794272103  0.0033781521633024 -0.0110739013730136
  0.0014819501472844 -0.0053300138882984 -0.0073112732356556
 -0.0003874718816668 -0.0014393764296056 -0.0085607605545556
